c This is UnifRandomKSATGenerator
c uniform random 3-SAT generated instance with: 
c clause length: 3 
c number variables: 20 
c number clauses: 85 
c clause to variable ratio: 4.27 
c random number generator name: SHA1PRNG 
c random number generator provider: SUN 
c random number generator seed: 4012548934790288532 
p cnf 20 85
8 -9 -15 0
-5 -13 14 0
9 14 6 0
-1 -3 15 0
-10 -5 -6 0
-10 18 19 0
-18 10 20 0
-2 -20 12 0
18 -4 -13 0
-9 -3 -20 0
-9 -7 -16 0
17 1 18 0
18 -19 -7 0
16 -15 -7 0
16 -17 -11 0
3 5 13 0
11 19 13 0
-20 -8 -16 0
-12 -5 -8 0
-20 3 -16 0
-10 4 14 0
-17 -10 7 0
3 -12 -14 0
16 -10 -4 0
-17 -10 18 0
3 6 14 0
-19 -13 -8 0
-18 12 5 0
-3 -14 6 0
9 -5 7 0
-1 -9 6 0
-5 14 -15 0
8 -15 -16 0
17 1 -8 0
-10 -18 -7 0
-11 12 14 0
2 11 -16 0
-2 10 -14 0
9 -4 -15 0
9 2 -8 0
18 12 -7 0
2 -14 -16 0
18 4 20 0
11 -6 -8 0
11 -20 14 0
11 13 -16 0
-3 -5 -16 0
-3 -11 -19 0
-9 1 4 0
17 -20 3 0
-2 -3 -7 0
-9 -4 -7 0
1 -13 -7 0
-5 -16 7 0
-9 -18 6 0
-17 1 15 0
3 -13 -7 0
-11 3 -15 0
8 -2 7 0
9 -5 -8 0
9 17 3 0
-13 14 -16 0
16 9 13 0
11 20 4 0
-20 12 15 0
-17 -18 19 0
-1 -2 19 0
-3 -12 -16 0
-10 9 -19 0
9 -13 -6 0
17 10 -5 0
2 11 -5 0
-1 10 15 0
1 19 14 0
8 17 -2 0
-18 12 -16 0
-18 -6 -7 0
-11 -4 -20 0
1 4 -14 0
-10 1 2 0
-10 -4 -7 0
-3 7 -16 0
-5 -13 6 0
9 -11 -20 0
1 -6 7 0
